<number of tasks>
58

<cycle time>
60

<task times>
1 10
2 53
3 41
4 36
5 35
6 17
7 34
8 23
9 14
10 52
11 33
12 34
13 12
14 52
15 12
16 33
17 44
18 7
19 15
20 13
21 29
22 37
23 43
24 23
25 24
26 9
27 16
28 12
29 26
30 22
31 51
32 47
33 34
34 23
35 12
36 52
37 12
38 33
39 44
40 7
41 15
42 13
43 29
44 37
45 43
46 23
47 24
48 9
49 16
50 12
51 26
52 12
53 52
54 12
55 33
56 44
57 7
58 15

<precedence relations>
1,9
2,25
3,21
3,22
4,10
5,36
6,23
6,24
7,43
8,44
9,11
11,13
11,14
11,15
12,17
13,17
14,17
15,17
16,18
17,20
18,19
19,23
20,21
20,25
21,26
21,44
22,27
23,31
24,31
25,38
26,29
27,30
28,32
28,33
29,31
30,34
31,36
32,45
33,35
34,36
35,43
36,37
36,38
37,39
37,40
37,41
38,52
39,43
40,43
41,42
42,43
43,45
44,45
45,46
45,48
45,49
46,47
46,50
47,51
48,55
49,58
50,58
51,52
52,53
53,54
54,55
54,56
55,57
56,57
57,58

<setup times forward>
1,2:2
1,3:1
1,4:1
1,6:2
1,7:1
1,8:3
1,9:1
1,10:1
1,12:1
1,16:4
1,18:1
1,22:3
1,23:1
1,24:1
1,27:4
1,30:1
1,32:2
1,35:4
2,1:2
2,3:3
2,4:1
2,5:2
2,6:4
2,7:3
2,8:5
2,9:1
2,10:3
2,11:6
2,12:3
2,13:2
2,15:6
2,16:6
2,18:3
2,19:2
2,21:1
2,22:5
2,23:1
2,24:3
2,25:4
2,26:5
2,27:6
2,28:2
2,29:6
2,30:3
2,33:2
2,34:2
2,35:6
2,36:2
2,37:5
2,39:3
2,40:5
2,41:5
2,42:6
2,43:2
2,44:3
2,45:3
2,46:1
2,47:4
2,48:5
2,49:3
2,50:1
2,51:2
3,1:1
3,2:3
3,4:2
3,5:1
3,6:1
3,8:2
3,9:2
3,11:3
3,13:1
3,14:3
3,15:3
3,16:3
3,17:3
3,19:1
3,20:3
3,21:2
3,22:2
3,23:2
3,25:1
3,28:1
3,32:3
3,33:1
3,35:3
4,1:1
4,2:1
4,3:2
4,5:1
4,6:3
4,7:2
4,8:4
4,10:2
4,11:5
4,12:2
4,13:1
4,14:1
4,15:5
4,16:5
4,17:1
4,18:2
4,19:1
4,20:1
4,22:4
4,24:2
4,25:3
4,26:4
4,27:5
4,28:1
4,29:5
4,30:2
4,31:1
4,32:1
4,33:1
4,34:1
4,35:5
4,36:1
4,37:4
4,38:1
4,39:2
4,40:4
4,41:4
4,42:5
4,43:1
4,44:2
4,45:2
4,47:3
4,48:4
4,49:2
4,51:1
4,52:4
4,53:1
4,54:5
4,56:1
4,57:3
4,58:5
5,2:2
5,3:1
5,4:1
5,6:2
5,7:1
5,8:3
5,9:1
5,10:1
5,11:4
5,12:1
5,14:2
5,15:4
5,16:4
5,17:2
5,18:1
5,20:2
5,21:1
5,22:3
5,23:1
5,24:1
5,25:2
5,26:3
5,27:4
5,29:4
5,30:1
5,31:2
5,32:2
5,35:4
5,44:1
6,1:2
6,2:4
6,3:1
6,4:3
6,5:2
6,7:1
6,8:1
6,9:3
6,10:1
6,11:2
6,12:1
6,13:2
6,14:4
6,15:2
6,16:2
6,17:4
6,18:1
6,19:2
6,20:4
6,21:3
6,22:1
6,23:3
6,24:1
6,26:1
6,27:2
6,28:2
6,29:2
6,30:1
6,32:4
6,33:2
6,34:2
6,35:2
6,44:1
7,1:1
7,2:3
7,4:2
7,5:1
7,6:1
7,8:2
7,9:2
7,11:3
7,13:1
7,14:3
7,15:3
7,16:3
7,17:3
7,19:1
7,20:3
7,21:2
7,22:2
7,23:2
7,25:1
7,26:2
7,27:3
7,28:1
7,29:3
7,31:3
7,32:3
7,33:1
7,34:1
7,35:3
7,36:1
7,37:2
7,38:3
7,40:2
7,41:2
7,42:3
7,43:1
8,1:3
8,2:5
8,3:2
8,4:4
8,5:3
8,6:1
8,7:2
8,9:4
8,10:2
8,11:1
8,12:2
8,13:3
8,14:5
8,15:1
8,16:1
8,17:5
8,18:2
8,19:3
8,20:5
8,21:4
8,23:4
8,24:2
8,25:1
8,27:1
8,28:3
8,29:1
8,30:2
8,31:5
8,32:5
8,33:3
8,34:3
8,35:1
8,36:3
8,38:5
8,39:2
8,42:1
8,43:3
8,44:2
9,2:1
9,3:2
9,5:1
9,6:3
9,7:2
9,8:4
9,10:2
9,11:5
9,12:2
9,16:5
9,18:2
9,19:1
9,22:4
9,24:2
9,27:5
9,28:1
9,30:2
9,32:1
9,33:1
9,34:1
9,35:5
10,1:1
10,2:3
10,5:1
10,6:1
10,8:2
10,9:2
10,11:3
10,13:1
10,14:3
10,15:3
10,16:3
10,17:3
10,19:1
10,20:3
10,21:2
10,22:2
10,23:2
10,25:1
10,26:2
10,27:3
10,28:1
10,29:3
10,31:3
10,32:3
10,33:1
10,34:1
10,35:3
10,36:1
10,37:2
10,38:3
10,40:2
10,41:2
10,42:3
10,43:1
10,46:2
10,47:1
10,48:2
10,50:2
10,51:1
10,52:2
10,53:1
10,54:3
10,55:2
10,56:3
10,57:1
10,58:3
11,2:6
11,3:3
11,4:5
11,5:4
11,6:2
11,7:3
11,8:1
11,10:3
11,12:3
11,13:4
11,14:6
11,18:3
11,19:4
11,22:1
11,23:5
11,24:3
11,28:4
11,30:3
11,32:6
11,33:4
11,34:4
12,1:1
12,2:3
12,4:2
12,5:1
12,6:1
12,8:2
12,9:2
12,11:3
12,13:1
12,14:3
12,15:3
12,16:3
12,17:3
12,19:1
12,22:2
12,23:2
12,27:3
12,28:1
12,32:3
12,33:1
12,34:1
12,35:3
13,2:2
13,3:1
13,4:1
13,6:2
13,7:1
13,8:3
13,10:1
13,12:1
13,14:2
13,15:4
13,16:4
13,17:2
13,18:1
13,22:3
13,23:1
13,24:1
13,27:4
13,30:1
13,32:2
13,35:4
14,3:3
14,4:1
14,5:2
14,6:4
14,7:3
14,8:5
14,10:3
14,12:3
14,13:2
14,15:6
14,16:6
14,18:3
14,19:2
14,22:5
14,23:1
14,24:3
14,27:6
14,28:2
14,30:3
14,33:2
14,34:2
14,35:6
15,2:6
15,3:3
15,4:5
15,5:4
15,6:2
15,7:3
15,8:1
15,10:3
15,12:3
15,13:4
15,14:6
15,17:6
15,18:3
15,19:4
15,22:1
15,23:5
15,24:3
15,28:4
15,30:3
15,32:6
15,33:4
15,34:4
16,1:4
16,2:6
16,3:3
16,4:5
16,5:4
16,6:2
16,7:3
16,8:1
16,9:5
16,10:3
16,12:3
16,13:4
16,14:6
16,17:6
16,18:3
16,20:6
16,21:5
16,22:1
16,24:3
16,25:2
16,26:1
16,28:4
16,30:3
16,32:6
16,33:4
16,34:4
16,44:3
17,3:3
17,4:1
17,5:2
17,6:4
17,7:3
17,8:5
17,10:3
17,16:6
17,18:3
17,19:2
17,22:5
17,23:1
17,24:3
17,27:6
17,28:2
17,30:3
17,33:2
17,34:2
17,35:6
18,1:1
18,2:3
18,4:2
18,5:1
18,6:1
18,8:2
18,9:2
18,11:3
18,13:1
18,14:3
18,15:3
18,17:3
18,19:1
18,20:3
18,21:2
18,22:2
18,25:1
18,26:2
18,27:3
18,28:1
18,29:3
18,32:3
18,33:1
18,34:1
18,35:3
19,2:2
19,3:1
19,4:1
19,6:2
19,7:1
19,8:3
19,9:1
19,10:1
19,11:4
19,12:1
19,14:2
19,15:4
19,17:2
19,20:2
19,21:1
19,22:3
19,23:1
19,24:1
19,25:2
19,26:3
19,27:4
19,29:4
19,30:1
19,32:2
19,35:4
19,44:1
20,3:3
20,4:1
20,5:2
20,6:4
20,7:3
20,8:5
20,10:3
20,16:6
20,18:3
20,19:2
20,21:1
20,22:5
20,23:1
20,24:3
20,25:4
20,27:6
20,28:2
20,30:3
20,33:2
20,34:2
20,35:6
21,2:1
21,5:1
21,6:3
21,7:2
21,8:4
21,10:2
21,16:5
21,18:2
21,19:1
21,22:4
21,24:2
21,25:3
21,26:4
21,27:5
21,28:1
21,30:2
21,32:1
21,33:1
21,34:1
21,35:5
21,44:2
22,1:3
22,2:5
22,4:4
22,5:3
22,6:1
22,7:2
22,9:4
22,10:2
22,11:1
22,12:2
22,13:3
22,14:5
22,15:1
22,16:1
22,17:5
22,18:2
22,19:3
22,20:5
22,21:4
22,23:4
22,24:2
22,25:1
22,27:1
22,28:3
22,29:1
22,31:5
22,32:5
22,33:3
22,35:1
22,44:2
23,1:1
23,2:1
23,3:2
23,5:1
23,7:2
23,8:4
23,10:2
23,11:5
23,12:2
23,13:1
23,14:1
23,15:5
23,17:1
23,20:1
23,22:4
23,24:2
23,25:3
23,26:4
23,27:5
23,28:1
23,29:5
23,30:2
23,31:1
23,32:1
23,33:1
23,34:1
23,35:5
23,44:2
24,1:1
24,2:3
24,4:2
24,5:1
24,8:2
24,9:2
24,11:3
24,13:1
24,14:3
24,15:3
24,16:3
24,17:3
24,19:1
24,20:3
24,21:2
24,22:2
24,23:2
24,25:1
24,26:2
24,27:3
24,28:1
24,29:3
24,31:3
24,32:3
24,33:1
24,34:1
24,35:3
25,3:1
25,4:3
25,5:2
25,7:1
25,8:1
25,10:1
25,16:2
25,18:1
25,19:2
25,21:3
25,22:1
25,23:3
25,24:1
25,26:1
25,27:2
25,28:2
25,29:2
25,30:1
25,31:4
25,32:4
25,33:2
25,34:2
25,35:2
25,36:2
25,37:1
25,38:4
25,39:1
25,40:1
25,41:1
25,42:2
25,43:2
25,44:1
25,45:1
25,46:3
25,48:1
25,49:1
25,50:3
25,51:2
26,2:5
26,4:4
26,5:3
26,6:1
26,7:2
26,10:2
26,16:1
26,18:2
26,19:3
26,23:4
26,24:2
26,25:1
26,27:1
26,28:3
26,29:1
26,30:2
26,32:5
26,33:3
26,34:3
26,35:1
26,44:2
27,1:4
27,2:6
27,4:5
27,5:4
27,6:2
27,7:3
27,8:1
27,9:5
27,10:3
27,12:3
27,13:4
27,14:6
27,17:6
27,18:3
27,19:4
27,20:6
27,21:5
27,23:5
27,24:3
27,25:2
27,26:1
27,28:4
27,30:3
27,31:6
27,32:6
27,33:4
27,44:3
28,2:2
28,3:1
28,4:1
28,6:2
28,7:1
28,8:3
28,9:1
28,10:1
28,11:4
28,12:1
28,14:2
28,15:4
28,16:4
28,17:2
28,18:1
28,20:2
28,21:1
28,22:3
28,23:1
28,24:1
28,25:2
28,26:3
28,27:4
28,29:4
28,30:1
28,31:2
28,32:2
28,37:3
28,38:2
28,39:1
28,40:3
28,41:3
28,42:4
28,44:1
29,2:6
29,4:5
29,5:4
29,6:2
29,7:3
29,8:1
29,10:3
29,18:3
29,19:4
29,22:1
29,23:5
29,24:3
29,25:2
29,28:4
29,30:3
29,31:6
29,32:6
29,33:4
29,34:4
29,44:3
30,1:1
30,2:3
30,4:2
30,5:1
30,6:1
30,8:2
30,9:2
30,11:3
30,13:1
30,14:3
30,15:3
30,16:3
30,17:3
30,19:1
30,20:3
30,21:2
30,23:2
30,25:1
30,26:2
30,28:1
30,29:3
30,31:3
30,32:3
30,33:1
30,34:1
30,35:3
31,4:1
31,5:2
31,7:3
31,8:5
31,10:3
31,22:5
31,25:4
31,27:6
31,28:2
31,30:3
31,33:2
31,34:2
31,35:6
31,36:2
31,44:3
32,1:2
32,3:3
32,4:1
32,5:2
32,6:4
32,7:3
32,8:5
32,9:1
32,10:3
32,11:6
32,12:3
32,13:2
32,15:6
32,16:6
32,18:3
32,19:2
32,21:1
32,22:5
32,23:1
32,24:3
32,25:4
32,26:5
32,27:6
32,29:6
32,30:3
32,33:2
32,34:2
32,35:6
32,36:2
32,37:5
32,39:3
32,40:5
32,41:5
32,42:6
32,43:2
32,44:3
32,45:3
33,2:2
33,3:1
33,4:1
33,6:2
33,7:1
33,8:3
33,9:1
33,10:1
33,11:4
33,12:1
33,14:2
33,15:4
33,16:4
33,17:2
33,18:1
33,20:2
33,21:1
33,22:3
33,23:1
33,24:1
33,25:2
33,26:3
33,27:4
33,29:4
33,30:1
33,31:2
33,32:2
33,35:4
33,37:3
33,38:2
33,39:1
33,40:3
33,41:3
33,42:4
33,44:1
34,2:2
34,4:1
34,6:2
34,7:1
34,8:3
34,9:1
34,10:1
34,11:4
34,12:1
34,14:2
34,15:4
34,16:4
34,17:2
34,18:1
34,20:2
34,21:1
34,23:1
34,24:1
34,25:2
34,26:3
34,29:4
34,31:2
34,32:2
34,35:4
34,44:1
35,1:4
35,2:6
35,3:3
35,4:5
35,5:4
35,6:2
35,7:3
35,8:1
35,9:5
35,10:3
35,12:3
35,13:4
35,14:6
35,17:6
35,18:3
35,19:4
35,20:6
35,21:5
35,22:1
35,23:5
35,24:3
35,25:2
35,26:1
35,30:3
35,31:6
35,32:6
35,34:4
35,36:4
35,37:1
35,38:6
35,39:3
35,40:1
35,41:1
35,43:4
35,44:3
36,2:2
36,4:1
36,7:1
36,8:3
36,10:1
36,25:2
36,32:2
36,35:4
36,37:3
36,38:2
36,44:1
37,2:5
37,4:4
37,7:2
37,10:2
37,25:1
37,28:3
37,32:5
37,33:3
37,35:1
37,38:5
37,39:2
37,44:2
38,4:1
38,7:3
38,8:5
38,10:3
38,28:2
38,33:2
38,35:6
38,37:5
38,39:3
38,40:5
38,41:5
38,42:6
38,43:2
38,44:3
38,45:3
38,46:1
38,47:4
38,48:5
38,49:3
38,50:1
38,51:2
38,52:5
39,2:3
39,4:2
39,8:2
39,25:1
39,28:1
39,32:3
39,33:1
39,35:3
39,38:3
39,40:2
39,41:2
39,42:3
39,43:1
40,2:5
40,4:4
40,7:2
40,10:2
40,25:1
40,28:3
40,32:5
40,33:3
40,35:1
40,38:5
40,39:2
40,42:1
40,43:3
40,44:2
41,2:5
41,4:4
41,7:2
41,10:2
41,25:1
41,28:3
41,32:5
41,33:3
41,35:1
41,38:5
41,39:2
41,42:1
41,44:2
42,2:6
42,4:5
42,7:3
42,8:1
42,10:3
42,25:2
42,28:4
42,32:6
42,33:4
42,38:6
42,39:3
42,40:1
42,43:4
42,44:3
43,2:2
43,4:1
43,8:3
43,10:1
43,25:2
43,32:2
43,38:2
43,44:1
43,45:1
44,2:3
44,4:2
44,5:1
44,6:1
44,16:3
44,19:1
44,22:2
44,23:2
44,25:1
44,26:2
44,27:3
44,28:1
44,29:3
44,31:3
44,32:3
44,33:1
44,34:1
44,35:3
44,36:1
44,37:2
44,38:3
44,40:2
44,41:2
44,42:3
44,43:1
45,2:3
45,4:2
45,25:1
45,38:3
45,46:2
45,48:2
46,2:1
46,10:2
46,25:3
46,38:1
46,47:3
46,48:4
46,49:2
47,2:4
47,4:3
47,10:1
47,38:4
47,48:1
47,49:1
47,50:3
47,51:2
48,2:5
48,4:4
48,10:2
48,25:1
48,38:5
48,46:4
48,47:1
48,49:2
48,50:4
48,51:3
48,53:3
48,54:1
48,55:4
48,56:5
49,2:3
49,4:2
49,25:1
49,38:3
49,46:2
49,47:1
49,48:2
49,50:2
49,51:1
49,52:2
49,53:1
49,54:3
49,55:2
49,56:3
49,57:1
49,58:3
50,2:1
50,10:2
50,25:3
50,38:1
50,47:3
50,48:4
50,49:2
50,51:1
50,52:4
50,53:1
50,54:5
50,56:1
50,57:3
50,58:5
51,2:2
51,4:1
51,10:1
51,25:2
51,38:2
51,48:3
51,49:1
51,50:1
51,52:3
52,4:4
52,10:2
52,49:2
52,50:4
52,53:3
53,4:1
53,10:1
53,48:3
53,49:1
53,50:1
53,54:4
54,4:5
54,10:3
54,48:1
54,49:3
54,50:5
54,55:5
54,56:6
55,10:2
55,49:2
55,56:1
55,57:3
56,4:1
56,10:3
56,48:5
56,49:3
56,50:1
56,55:1
56,57:4
57,4:3
57,10:1
57,49:1
57,50:3
57,58:2
58,4:5
58,10:3

<setup times backward>
1,1:7
1,2:5
1,3:8
1,4:6
1,5:7
1,6:9
1,7:8
1,8:10
1,10:8
1,12:8
1,16:11
1,18:8
1,19:7
1,22:10
1,23:6
1,24:8
1,27:11
1,28:7
1,30:8
1,32:5
1,33:7
1,34:7
1,35:11
2,1:9
2,2:7
2,3:10
2,4:8
2,5:9
2,6:11
2,7:10
2,8:12
2,9:8
2,10:10
2,11:13
2,12:10
2,13:9
2,14:7
2,15:13
2,16:13
2,17:7
2,18:10
2,19:9
2,20:7
2,21:8
2,22:12
2,23:8
2,24:10
2,26:12
2,27:13
2,28:9
2,29:13
2,30:10
2,31:7
2,32:7
2,33:9
2,34:9
2,35:13
2,36:9
2,37:12
2,39:10
2,40:12
2,41:12
2,42:13
2,43:9
2,44:10
2,45:10
2,46:8
2,47:11
2,48:12
2,49:10
2,50:8
2,51:9
3,1:6
3,2:4
3,3:7
3,4:5
3,5:6
3,6:8
3,7:7
3,8:9
3,9:5
3,10:7
3,11:10
3,12:7
3,13:6
3,14:4
3,15:10
3,16:10
3,17:4
3,18:7
3,19:6
3,20:4
3,23:5
3,24:7
3,25:8
3,28:6
3,32:4
3,33:6
3,35:10
4,1:8
4,2:6
4,3:9
4,4:7
4,5:8
4,6:10
4,7:9
4,8:11
4,9:7
4,11:12
4,12:9
4,13:8
4,14:6
4,15:12
4,16:12
4,17:6
4,18:9
4,19:8
4,20:6
4,21:7
4,22:11
4,23:7
4,24:9
4,25:10
4,26:11
4,27:12
4,28:8
4,29:12
4,30:9
4,31:6
4,32:6
4,33:8
4,34:8
4,35:12
4,36:8
4,37:11
4,38:6
4,39:9
4,40:11
4,41:11
4,42:12
4,43:8
4,44:9
4,45:9
4,46:7
4,47:10
4,48:11
4,49:9
4,50:7
4,51:8
4,52:11
4,53:8
4,54:12
4,55:7
4,56:6
4,57:10
4,58:12
5,1:7
5,2:5
5,3:8
5,4:6
5,5:7
5,6:9
5,7:8
5,8:10
5,9:6
5,10:8
5,11:11
5,12:8
5,13:7
5,14:5
5,15:11
5,16:11
5,17:5
5,18:8
5,19:7
5,20:5
5,21:6
5,22:10
5,23:6
5,24:8
5,25:9
5,26:10
5,27:11
5,28:7
5,29:11
5,30:8
5,31:5
5,32:5
5,33:7
5,34:7
5,35:11
5,44:8
6,1:5
6,2:3
6,3:6
6,4:4
6,5:5
6,6:7
6,7:6
6,8:8
6,9:4
6,10:6
6,11:9
6,12:6
6,13:5
6,14:3
6,15:9
6,16:9
6,17:3
6,18:6
6,19:5
6,20:3
6,21:4
6,22:8
6,25:7
6,26:8
6,27:9
6,28:5
6,29:9
6,30:6
6,32:3
6,33:5
6,34:5
6,35:9
6,44:6
7,1:6
7,2:4
7,3:7
7,4:5
7,5:6
7,6:8
7,7:7
7,8:9
7,9:5
7,10:7
7,11:10
7,12:7
7,13:6
7,14:4
7,15:10
7,16:10
7,17:4
7,18:7
7,19:6
7,20:4
7,21:5
7,22:9
7,23:5
7,24:7
7,25:8
7,26:9
7,27:10
7,28:6
7,29:10
7,30:7
7,31:4
7,32:4
7,33:6
7,34:6
7,35:10
7,36:6
7,37:9
7,38:4
7,39:7
7,40:9
7,41:9
7,42:10
7,44:7
8,1:4
8,2:2
8,3:5
8,4:3
8,5:4
8,6:6
8,7:5
8,8:7
8,9:3
8,10:5
8,11:8
8,12:5
8,13:4
8,14:2
8,15:8
8,16:8
8,17:2
8,18:5
8,19:4
8,20:2
8,21:3
8,22:7
8,23:3
8,24:5
8,25:6
8,26:7
8,27:8
8,28:4
8,29:8
8,30:5
8,31:2
8,32:2
8,33:4
8,34:4
8,35:8
8,36:4
8,37:7
8,38:2
8,39:5
8,40:7
8,41:7
8,42:8
8,43:4
9,1:8
9,2:6
9,3:9
9,4:7
9,5:8
9,6:10
9,7:9
9,8:11
9,9:7
9,10:9
9,12:9
9,16:12
9,18:9
9,19:8
9,22:11
9,23:7
9,24:9
9,27:12
9,28:8
9,30:9
9,32:6
9,33:8
9,34:8
9,35:12
10,1:6
10,2:4
10,3:7
10,4:5
10,5:6
10,6:8
10,7:7
10,8:9
10,9:5
10,10:7
10,11:10
10,12:7
10,13:6
10,14:4
10,15:10
10,16:10
10,17:4
10,18:7
10,19:6
10,20:4
10,21:5
10,22:9
10,23:5
10,24:7
10,25:8
10,26:9
10,27:10
10,28:6
10,29:10
10,30:7
10,31:4
10,32:4
10,33:6
10,34:6
10,35:10
10,36:6
10,37:9
10,38:4
10,39:7
10,40:9
10,41:9
10,42:10
10,43:6
10,44:7
10,45:7
10,46:5
10,47:8
10,48:9
10,49:7
10,50:5
10,51:6
10,52:9
10,53:6
10,54:10
10,55:5
10,56:4
10,57:8
10,58:10
11,1:3
11,2:1
11,3:4
11,4:2
11,5:3
11,6:5
11,7:4
11,8:6
11,9:2
11,10:4
11,11:7
11,12:4
11,16:7
11,18:4
11,19:3
11,22:6
11,23:2
11,24:4
11,27:7
11,28:3
11,30:4
11,32:1
11,33:3
11,34:3
11,35:7
12,1:6
12,2:4
12,3:7
12,4:5
12,5:6
12,6:8
12,7:7
12,8:9
12,9:5
12,10:7
12,11:10
12,12:7
12,13:6
12,14:4
12,15:10
12,16:10
12,18:7
12,19:6
12,22:9
12,23:5
12,24:7
12,27:10
12,28:6
12,30:7
12,32:4
12,33:6
12,34:6
12,35:10
13,1:7
13,2:5
13,3:8
13,4:6
13,5:7
13,6:9
13,7:8
13,8:10
13,9:6
13,10:8
13,11:11
13,12:8
13,13:7
13,14:5
13,15:11
13,16:11
13,18:8
13,19:7
13,22:10
13,23:6
13,24:8
13,27:11
13,28:7
13,30:8
13,32:5
13,33:7
13,34:7
13,35:11
14,1:9
14,2:7
14,3:10
14,4:8
14,5:9
14,6:11
14,7:10
14,8:12
14,9:8
14,10:10
14,11:13
14,12:10
14,13:9
14,14:7
14,15:13
14,16:13
14,18:10
14,19:9
14,22:12
14,23:8
14,24:10
14,27:13
14,28:9
14,30:10
14,32:7
14,33:9
14,34:9
14,35:13
15,1:3
15,2:1
15,3:4
15,4:2
15,5:3
15,6:5
15,7:4
15,8:6
15,9:2
15,10:4
15,11:7
15,12:4
15,13:3
15,14:1
15,15:7
15,16:7
15,18:4
15,19:3
15,22:6
15,23:2
15,24:4
15,27:7
15,28:3
15,30:4
15,32:1
15,33:3
15,34:3
15,35:7
16,1:3
16,2:1
16,3:4
16,4:2
16,5:3
16,6:5
16,7:4
16,8:6
16,9:2
16,10:4
16,11:7
16,12:4
16,13:3
16,14:1
16,15:7
16,16:7
16,17:1
16,20:1
16,21:2
16,22:6
16,24:4
16,25:5
16,26:6
16,27:7
16,28:3
16,29:7
16,30:4
16,32:1
16,33:3
16,34:3
16,35:7
16,44:4
17,1:9
17,2:7
17,3:10
17,4:8
17,5:9
17,6:11
17,7:10
17,8:12
17,9:8
17,10:10
17,11:13
17,12:10
17,13:9
17,14:7
17,15:13
17,16:13
17,17:7
17,18:10
17,19:9
17,22:12
17,23:8
17,24:10
17,27:13
17,28:9
17,30:10
17,32:7
17,33:9
17,34:9
17,35:13
18,1:6
18,2:4
18,3:7
18,4:5
18,5:6
18,6:8
18,7:7
18,8:9
18,9:5
18,10:7
18,11:10
18,12:7
18,13:6
18,14:4
18,15:10
18,16:10
18,17:4
18,18:7
18,20:4
18,21:5
18,22:9
18,24:7
18,25:8
18,26:9
18,27:10
18,28:6
18,29:10
18,30:7
18,32:4
18,33:6
18,34:6
18,35:10
18,44:7
19,1:7
19,2:5
19,3:8
19,4:6
19,5:7
19,6:9
19,7:8
19,8:10
19,9:6
19,10:8
19,11:11
19,12:8
19,13:7
19,14:5
19,15:11
19,16:11
19,17:5
19,18:8
19,19:7
19,20:5
19,21:6
19,22:10
19,24:8
19,25:9
19,26:10
19,27:11
19,28:7
19,29:11
19,30:8
19,32:5
19,33:7
19,34:7
19,35:11
19,44:8
20,1:9
20,2:7
20,3:10
20,4:8
20,5:9
20,6:11
20,7:10
20,8:12
20,9:8
20,10:10
20,11:13
20,12:10
20,13:9
20,14:7
20,15:13
20,16:13
20,17:7
20,18:10
20,19:9
20,20:7
20,22:12
20,23:8
20,24:10
20,27:13
20,28:9
20,30:10
20,32:7
20,33:9
20,34:9
20,35:13
21,1:8
21,2:6
21,3:9
21,4:7
21,5:8
21,6:10
21,7:9
21,8:11
21,9:7
21,10:9
21,11:12
21,12:9
21,13:8
21,14:6
21,15:12
21,16:12
21,17:6
21,18:9
21,19:8
21,20:6
21,21:7
21,22:11
21,23:7
21,24:9
21,25:10
21,27:12
21,28:8
21,30:9
21,32:6
21,33:8
21,34:8
21,35:12
22,1:4
22,2:2
22,3:5
22,4:3
22,5:4
22,6:6
22,7:5
22,8:7
22,9:3
22,10:5
22,11:8
22,12:5
22,13:4
22,14:2
22,15:8
22,16:8
22,17:2
22,18:5
22,19:4
22,20:2
22,21:3
22,22:7
22,23:3
22,24:5
22,25:6
22,26:7
22,28:4
22,29:8
22,31:2
22,32:2
22,33:4
22,35:8
22,44:5
23,1:8
23,2:6
23,3:9
23,4:7
23,5:8
23,6:10
23,7:9
23,8:11
23,9:7
23,10:9
23,11:12
23,12:9
23,13:8
23,14:6
23,15:12
23,16:12
23,17:6
23,18:9
23,19:8
23,20:6
23,21:7
23,22:11
23,23:7
23,24:9
23,25:10
23,26:11
23,27:12
23,28:8
23,29:12
23,30:9
23,32:6
23,33:8
23,34:8
23,35:12
23,44:9
24,1:6
24,2:4
24,3:7
24,4:5
24,5:6
24,6:8
24,7:7
24,8:9
24,9:5
24,10:7
24,11:10
24,12:7
24,13:6
24,14:4
24,15:10
24,16:10
24,17:4
24,18:7
24,19:6
24,20:4
24,21:5
24,22:9
24,23:5
24,24:7
24,25:8
24,26:9
24,27:10
24,28:6
24,29:10
24,30:7
24,32:4
24,33:6
24,34:6
24,35:10
24,44:7
25,1:5
25,2:3
25,3:6
25,4:4
25,5:5
25,6:7
25,7:6
25,8:8
25,9:4
25,10:6
25,11:9
25,12:6
25,13:5
25,14:3
25,15:9
25,16:9
25,17:3
25,18:6
25,19:5
25,20:3
25,21:4
25,22:8
25,23:4
25,24:6
25,25:7
25,26:8
25,27:9
25,28:5
25,29:9
25,30:6
25,31:3
25,32:3
25,33:5
25,34:5
25,35:9
25,36:5
25,37:8
25,39:6
25,40:8
25,41:8
25,42:9
25,43:5
25,44:6
25,45:6
25,46:4
25,47:7
25,48:8
25,49:6
25,50:4
25,51:5
26,1:4
26,2:2
26,3:5
26,4:3
26,5:4
26,6:6
26,7:5
26,8:7
26,9:3
26,10:5
26,11:8
26,12:5
26,13:4
26,14:2
26,15:8
26,16:8
26,17:2
26,18:5
26,19:4
26,20:2
26,21:3
26,22:7
26,23:3
26,24:5
26,25:6
26,26:7
26,27:8
26,28:4
26,30:5
26,32:2
26,33:4
26,34:4
26,35:8
26,44:5
27,1:3
27,2:1
27,3:4
27,4:2
27,5:3
27,6:5
27,7:4
27,8:6
27,9:2
27,10:4
27,11:7
27,12:4
27,13:3
27,14:1
27,15:7
27,16:7
27,17:1
27,18:4
27,19:3
27,20:1
27,21:2
27,22:6
27,23:2
27,24:4
27,25:5
27,26:6
27,27:7
27,28:3
27,29:7
27,31:1
27,32:1
27,33:3
27,35:7
27,44:4
28,1:7
28,2:5
28,3:8
28,4:6
28,5:7
28,6:9
28,7:8
28,8:10
28,9:6
28,10:8
28,11:11
28,12:8
28,13:7
28,14:5
28,15:11
28,16:11
28,17:5
28,18:8
28,19:7
28,20:5
28,21:6
28,22:10
28,23:6
28,24:8
28,25:9
28,26:10
28,27:11
28,28:7
28,29:11
28,30:8
28,31:5
28,34:7
28,36:7
28,37:10
28,38:5
28,39:8
28,40:10
28,41:10
28,42:11
28,44:8
29,1:3
29,2:1
29,3:4
29,4:2
29,5:3
29,6:5
29,7:4
29,8:6
29,9:2
29,10:4
29,11:7
29,12:4
29,13:3
29,14:1
29,15:7
29,16:7
29,17:1
29,18:4
29,19:3
29,20:1
29,21:2
29,22:6
29,23:2
29,24:4
29,25:5
29,26:6
29,27:7
29,28:3
29,29:7
29,30:4
29,32:1
29,33:3
29,34:3
29,35:7
29,44:4
30,1:6
30,2:4
30,3:7
30,4:5
30,5:6
30,6:8
30,7:7
30,8:9
30,9:5
30,10:7
30,11:10
30,12:7
30,13:6
30,14:4
30,15:10
30,16:10
30,17:4
30,18:7
30,19:6
30,20:4
30,21:5
30,22:9
30,23:5
30,24:7
30,25:8
30,26:9
30,27:10
30,28:6
30,29:10
30,30:7
30,31:4
30,32:4
30,33:6
30,35:10
30,44:7
31,1:9
31,2:7
31,3:10
31,4:8
31,5:9
31,6:11
31,7:10
31,8:12
31,9:8
31,10:10
31,11:13
31,12:10
31,13:9
31,14:7
31,15:13
31,16:13
31,17:7
31,18:10
31,19:9
31,20:7
31,21:8
31,22:12
31,23:8
31,24:10
31,25:11
31,26:12
31,27:13
31,28:9
31,29:13
31,30:10
31,31:7
31,32:7
31,33:9
31,34:9
31,35:13
31,44:10
32,1:9
32,2:7
32,3:10
32,4:8
32,5:9
32,6:11
32,7:10
32,8:12
32,9:8
32,10:10
32,11:13
32,12:10
32,13:9
32,14:7
32,15:13
32,16:13
32,17:7
32,18:10
32,19:9
32,20:7
32,21:8
32,22:12
32,23:8
32,24:10
32,25:11
32,26:12
32,27:13
32,28:9
32,29:13
32,30:10
32,31:7
32,32:7
32,33:9
32,34:9
32,35:13
32,36:9
32,37:12
32,38:7
32,39:10
32,40:12
32,41:12
32,42:13
32,43:9
32,44:10
33,1:7
33,2:5
33,3:8
33,4:6
33,5:7
33,6:9
33,7:8
33,8:10
33,9:6
33,10:8
33,11:11
33,12:8
33,13:7
33,14:5
33,15:11
33,16:11
33,17:5
33,18:8
33,19:7
33,20:5
33,21:6
33,22:10
33,23:6
33,24:8
33,25:9
33,26:10
33,27:11
33,28:7
33,29:11
33,30:8
33,31:5
33,32:5
33,33:7
33,34:7
33,36:7
33,37:10
33,38:5
33,39:8
33,40:10
33,41:10
33,42:11
33,44:8
34,1:7
34,2:5
34,3:8
34,4:6
34,5:7
34,6:9
34,7:8
34,8:10
34,9:6
34,10:8
34,11:11
34,12:8
34,13:7
34,14:5
34,15:11
34,16:11
34,17:5
34,18:8
34,19:7
34,20:5
34,21:6
34,22:10
34,23:6
34,24:8
34,25:9
34,26:10
34,27:11
34,28:7
34,29:11
34,30:8
34,31:5
34,32:5
34,33:7
34,34:7
34,35:11
34,44:8
35,1:3
35,2:1
35,3:4
35,4:2
35,5:3
35,6:5
35,7:4
35,8:6
35,9:2
35,10:4
35,11:7
35,12:4
35,13:3
35,14:1
35,15:7
35,16:7
35,17:1
35,18:4
35,19:3
35,20:1
35,21:2
35,22:6
35,23:2
35,24:4
35,25:5
35,26:6
35,27:7
35,28:3
35,29:7
35,30:4
35,31:1
35,32:1
35,33:3
35,34:3
35,35:7
35,36:3
35,37:6
35,38:1
35,39:4
35,40:6
35,41:6
35,42:7
35,44:4
36,1:7
36,2:5
36,3:8
36,4:6
36,5:7
36,6:9
36,7:8
36,8:10
36,9:6
36,10:8
36,11:11
36,12:8
36,13:7
36,14:5
36,15:11
36,16:11
36,17:5
36,18:8
36,19:7
36,20:5
36,21:6
36,22:10
36,23:6
36,24:8
36,25:9
36,26:10
36,27:11
36,28:7
36,29:11
36,30:8
36,31:5
36,32:5
36,33:7
36,34:7
36,35:11
36,36:7
36,44:8
37,1:4
37,2:2
37,3:5
37,4:3
37,5:4
37,6:6
37,7:5
37,8:7
37,9:3
37,10:5
37,11:8
37,12:5
37,13:4
37,14:2
37,15:8
37,16:8
37,17:2
37,18:5
37,19:4
37,20:2
37,21:3
37,22:7
37,23:3
37,24:5
37,25:6
37,26:7
37,27:8
37,28:4
37,29:8
37,30:5
37,31:2
37,32:2
37,33:4
37,34:4
37,35:8
37,36:4
37,37:7
37,38:2
37,44:5
38,1:9
38,2:7
38,3:10
38,4:8
38,5:9
38,6:11
38,7:10
38,8:12
38,9:8
38,10:10
38,11:13
38,12:10
38,13:9
38,14:7
38,15:13
38,16:13
38,17:7
38,18:10
38,19:9
38,20:7
38,21:8
38,22:12
38,23:8
38,24:10
38,25:11
38,26:12
38,27:13
38,28:9
38,29:13
38,30:10
38,31:7
38,32:7
38,33:9
38,34:9
38,35:13
38,36:9
38,37:12
38,38:7
38,39:10
38,40:12
38,41:12
38,42:13
38,43:9
38,44:10
38,45:10
38,46:8
38,47:11
38,48:12
38,49:10
38,50:8
38,51:9
39,1:6
39,2:4
39,3:7
39,4:5
39,5:6
39,6:8
39,7:7
39,8:9
39,9:5
39,10:7
39,11:10
39,12:7
39,13:6
39,14:4
39,15:10
39,16:10
39,17:4
39,18:7
39,19:6
39,20:4
39,21:5
39,22:9
39,23:5
39,24:7
39,25:8
39,26:9
39,27:10
39,28:6
39,29:10
39,30:7
39,31:4
39,32:4
39,33:6
39,34:6
39,35:10
39,36:6
39,37:9
39,38:4
39,39:7
39,40:9
39,41:9
39,42:10
39,44:7
40,1:4
40,2:2
40,3:5
40,4:3
40,5:4
40,6:6
40,7:5
40,8:7
40,9:3
40,10:5
40,11:8
40,12:5
40,13:4
40,14:2
40,15:8
40,16:8
40,17:2
40,18:5
40,19:4
40,20:2
40,21:3
40,22:7
40,23:3
40,24:5
40,25:6
40,26:7
40,27:8
40,28:4
40,29:8
40,30:5
40,31:2
40,32:2
40,33:4
40,34:4
40,35:8
40,36:4
40,37:7
40,38:2
40,39:5
40,40:7
40,41:7
40,42:8
40,44:5
41,1:4
41,2:2
41,3:5
41,4:3
41,5:4
41,6:6
41,7:5
41,8:7
41,9:3
41,10:5
41,11:8
41,12:5
41,13:4
41,14:2
41,15:8
41,16:8
41,17:2
41,18:5
41,19:4
41,20:2
41,21:3
41,22:7
41,23:3
41,24:5
41,25:6
41,26:7
41,27:8
41,28:4
41,29:8
41,30:5
41,31:2
41,32:2
41,33:4
41,34:4
41,35:8
41,36:4
41,37:7
41,38:2
41,39:5
41,40:7
41,41:7
41,44:5
42,1:3
42,2:1
42,3:4
42,4:2
42,5:3
42,6:5
42,7:4
42,8:6
42,9:2
42,10:4
42,11:7
42,12:4
42,13:3
42,14:1
42,15:7
42,16:7
42,17:1
42,18:4
42,19:3
42,20:1
42,21:2
42,22:6
42,23:2
42,24:4
42,25:5
42,26:6
42,27:7
42,28:3
42,29:7
42,30:4
42,31:1
42,32:1
42,33:3
42,34:3
42,35:7
42,36:3
42,37:6
42,38:1
42,39:4
42,40:6
42,41:6
42,42:7
42,44:4
43,1:7
43,2:5
43,3:8
43,4:6
43,5:7
43,6:9
43,7:8
43,8:10
43,9:6
43,10:8
43,11:11
43,12:8
43,13:7
43,14:5
43,15:11
43,16:11
43,17:5
43,18:8
43,19:7
43,20:5
43,21:6
43,22:10
43,23:6
43,24:8
43,25:9
43,26:10
43,27:11
43,28:7
43,29:11
43,30:8
43,31:5
43,32:5
43,33:7
43,34:7
43,35:11
43,36:7
43,37:10
43,38:5
43,39:8
43,40:10
43,41:10
43,42:11
43,43:7
43,44:8
44,1:6
44,2:4
44,3:7
44,4:5
44,5:6
44,6:8
44,7:7
44,8:9
44,9:5
44,10:7
44,11:10
44,12:7
44,13:6
44,14:4
44,15:10
44,16:10
44,17:4
44,18:7
44,19:6
44,20:4
44,21:5
44,22:9
44,23:5
44,24:7
44,25:8
44,26:9
44,27:10
44,28:6
44,29:10
44,30:7
44,31:4
44,32:4
44,33:6
44,34:6
44,35:10
44,36:6
44,37:9
44,38:4
44,39:7
44,40:9
44,41:9
44,42:10
44,43:6
44,44:7
45,1:6
45,2:4
45,3:7
45,4:5
45,5:6
45,6:8
45,7:7
45,8:9
45,9:5
45,10:7
45,11:10
45,12:7
45,13:6
45,14:4
45,15:10
45,16:10
45,17:4
45,18:7
45,19:6
45,20:4
45,21:5
45,22:9
45,23:5
45,24:7
45,25:8
45,26:9
45,27:10
45,28:6
45,29:10
45,30:7
45,31:4
45,32:4
45,33:6
45,34:6
45,35:10
45,36:6
45,37:9
45,38:4
45,39:7
45,40:9
45,41:9
45,42:10
45,43:6
45,44:7
45,45:7
46,1:8
46,2:6
46,3:9
46,4:7
46,5:8
46,6:10
46,7:9
46,8:11
46,9:7
46,10:9
46,11:12
46,12:9
46,13:8
46,14:6
46,15:12
46,16:12
46,17:6
46,18:9
46,19:8
46,20:6
46,21:7
46,22:11
46,23:7
46,24:9
46,25:10
46,26:11
46,27:12
46,28:8
46,29:12
46,30:9
46,31:6
46,32:6
46,33:8
46,34:8
46,35:12
46,36:8
46,37:11
46,38:6
46,39:9
46,40:11
46,41:11
46,42:12
46,43:8
46,44:9
46,45:9
46,46:7
46,48:11
46,49:9
47,1:5
47,2:3
47,3:6
47,4:4
47,5:5
47,6:7
47,7:6
47,8:8
47,9:4
47,10:6
47,11:9
47,12:6
47,13:5
47,14:3
47,15:9
47,16:9
47,17:3
47,18:6
47,19:5
47,20:3
47,21:4
47,22:8
47,23:4
47,24:6
47,25:7
47,26:8
47,27:9
47,28:5
47,29:9
47,30:6
47,31:3
47,32:3
47,33:5
47,34:5
47,35:9
47,36:5
47,37:8
47,38:3
47,39:6
47,40:8
47,41:8
47,42:9
47,43:5
47,44:6
47,45:6
47,46:4
47,47:7
47,48:8
47,49:6
47,50:4
48,1:4
48,2:2
48,3:5
48,4:3
48,5:4
48,6:6
48,7:5
48,8:7
48,9:3
48,10:5
48,11:8
48,12:5
48,13:4
48,14:2
48,15:8
48,16:8
48,17:2
48,18:5
48,19:4
48,20:2
48,21:3
48,22:7
48,23:3
48,24:5
48,25:6
48,26:7
48,27:8
48,28:4
48,29:8
48,30:5
48,31:2
48,32:2
48,33:4
48,34:4
48,35:8
48,36:4
48,37:7
48,38:2
48,39:5
48,40:7
48,41:7
48,42:8
48,43:4
48,44:5
48,45:5
48,46:3
48,47:6
48,48:7
48,49:5
48,50:3
48,51:4
48,52:7
48,53:4
48,54:8
48,56:2
49,1:6
49,2:4
49,3:7
49,4:5
49,5:6
49,6:8
49,7:7
49,8:9
49,9:5
49,10:7
49,11:10
49,12:7
49,13:6
49,14:4
49,15:10
49,16:10
49,17:4
49,18:7
49,19:6
49,20:4
49,21:5
49,22:9
49,23:5
49,24:7
49,25:8
49,26:9
49,27:10
49,28:6
49,29:10
49,30:7
49,31:4
49,32:4
49,33:6
49,34:6
49,35:10
49,36:6
49,37:9
49,38:4
49,39:7
49,40:9
49,41:9
49,42:10
49,43:6
49,44:7
49,45:7
49,46:5
49,47:8
49,48:9
49,49:7
49,50:5
49,51:6
49,52:9
49,53:6
49,54:10
49,55:5
49,56:4
49,57:8
50,1:8
50,2:6
50,3:9
50,4:7
50,5:8
50,6:10
50,7:9
50,8:11
50,9:7
50,10:9
50,11:12
50,12:9
50,13:8
50,14:6
50,15:12
50,16:12
50,17:6
50,18:9
50,19:8
50,20:6
50,21:7
50,22:11
50,23:7
50,24:9
50,25:10
50,26:11
50,27:12
50,28:8
50,29:12
50,30:9
50,31:6
50,32:6
50,33:8
50,34:8
50,35:12
50,36:8
50,37:11
50,38:6
50,39:9
50,40:11
50,41:11
50,42:12
50,43:8
50,44:9
50,45:9
50,46:7
50,47:10
50,48:11
50,49:9
50,50:7
50,51:8
50,52:11
50,53:8
50,54:12
50,55:7
50,56:6
50,57:10
51,1:7
51,2:5
51,3:8
51,4:6
51,5:7
51,6:9
51,7:8
51,8:10
51,9:6
51,10:8
51,11:11
51,12:8
51,13:7
51,14:5
51,15:11
51,16:11
51,17:5
51,18:8
51,19:7
51,20:5
51,21:6
51,22:10
51,23:6
51,24:8
51,25:9
51,26:10
51,27:11
51,28:7
51,29:11
51,30:8
51,31:5
51,32:5
51,33:7
51,34:7
51,35:11
51,36:7
51,37:10
51,38:5
51,39:8
51,40:10
51,41:10
51,42:11
51,43:7
51,44:8
51,45:8
51,46:6
51,47:9
51,48:10
51,49:8
51,50:6
51,51:7
52,1:4
52,2:2
52,3:5
52,4:3
52,5:4
52,6:6
52,7:5
52,8:7
52,9:3
52,10:5
52,11:8
52,12:5
52,13:4
52,14:2
52,15:8
52,16:8
52,17:2
52,18:5
52,19:4
52,20:2
52,21:3
52,22:7
52,23:3
52,24:5
52,25:6
52,26:7
52,27:8
52,28:4
52,29:8
52,30:5
52,31:2
52,32:2
52,33:4
52,34:4
52,35:8
52,36:4
52,37:7
52,38:2
52,39:5
52,40:7
52,41:7
52,42:8
52,43:4
52,44:5
52,45:5
52,46:3
52,47:6
52,48:7
52,49:5
52,50:3
52,51:4
52,52:7
53,1:7
53,2:5
53,3:8
53,4:6
53,5:7
53,6:9
53,7:8
53,8:10
53,9:6
53,10:8
53,11:11
53,12:8
53,13:7
53,14:5
53,15:11
53,16:11
53,17:5
53,18:8
53,19:7
53,20:5
53,21:6
53,22:10
53,23:6
53,24:8
53,25:9
53,26:10
53,27:11
53,28:7
53,29:11
53,30:8
53,31:5
53,32:5
53,33:7
53,34:7
53,35:11
53,36:7
53,37:10
53,38:5
53,39:8
53,40:10
53,41:10
53,42:11
53,43:7
53,44:8
53,45:8
53,46:6
53,47:9
53,48:10
53,49:8
53,50:6
53,51:7
53,52:10
53,53:7
54,1:3
54,2:1
54,3:4
54,4:2
54,5:3
54,6:5
54,7:4
54,8:6
54,9:2
54,10:4
54,11:7
54,12:4
54,13:3
54,14:1
54,15:7
54,16:7
54,17:1
54,18:4
54,19:3
54,20:1
54,21:2
54,22:6
54,23:2
54,24:4
54,25:5
54,26:6
54,27:7
54,28:3
54,29:7
54,30:4
54,31:1
54,32:1
54,33:3
54,34:3
54,35:7
54,36:3
54,37:6
54,38:1
54,39:4
54,40:6
54,41:6
54,42:7
54,43:3
54,44:4
54,45:4
54,46:2
54,47:5
54,48:6
54,49:4
54,50:2
54,51:3
54,52:6
54,53:3
54,54:7
55,1:8
55,2:6
55,3:9
55,4:7
55,5:8
55,6:10
55,7:9
55,8:11
55,9:7
55,10:9
55,11:12
55,12:9
55,13:8
55,14:6
55,15:12
55,16:12
55,17:6
55,18:9
55,19:8
55,20:6
55,21:7
55,22:11
55,23:7
55,24:9
55,25:10
55,26:11
55,27:12
55,28:8
55,29:12
55,30:9
55,31:6
55,32:6
55,33:8
55,34:8
55,35:12
55,36:8
55,37:11
55,38:6
55,39:9
55,40:11
55,41:11
55,42:12
55,43:8
55,44:9
55,45:9
55,46:7
55,47:10
55,48:11
55,49:9
55,50:7
55,51:8
55,52:11
55,53:8
55,54:12
55,55:7
55,56:6
56,1:9
56,2:7
56,3:10
56,4:8
56,5:9
56,6:11
56,7:10
56,8:12
56,9:8
56,10:10
56,11:13
56,12:10
56,13:9
56,14:7
56,15:13
56,16:13
56,17:7
56,18:10
56,19:9
56,20:7
56,21:8
56,22:12
56,23:8
56,24:10
56,25:11
56,26:12
56,27:13
56,28:9
56,29:13
56,30:10
56,31:7
56,32:7
56,33:9
56,34:9
56,35:13
56,36:9
56,37:12
56,38:7
56,39:10
56,40:12
56,41:12
56,42:13
56,43:9
56,44:10
56,45:10
56,46:8
56,47:11
56,48:12
56,49:10
56,50:8
56,51:9
56,52:12
56,53:9
56,54:13
56,55:8
56,56:7
57,1:5
57,2:3
57,3:6
57,4:4
57,5:5
57,6:7
57,7:6
57,8:8
57,9:4
57,10:6
57,11:9
57,12:6
57,13:5
57,14:3
57,15:9
57,16:9
57,17:3
57,18:6
57,19:5
57,20:3
57,21:4
57,22:8
57,23:4
57,24:6
57,25:7
57,26:8
57,27:9
57,28:5
57,29:9
57,30:6
57,31:3
57,32:3
57,33:5
57,34:5
57,35:9
57,36:5
57,37:8
57,38:3
57,39:6
57,40:8
57,41:8
57,42:9
57,43:5
57,44:6
57,45:6
57,46:4
57,47:7
57,48:8
57,49:6
57,50:4
57,51:5
57,52:8
57,53:5
57,54:9
57,55:4
57,56:3
57,57:7
58,1:3
58,2:1
58,3:4
58,4:2
58,5:3
58,6:5
58,7:4
58,8:6
58,9:2
58,10:4
58,11:7
58,12:4
58,13:3
58,14:1
58,15:7
58,16:7
58,17:1
58,18:4
58,19:3
58,20:1
58,21:2
58,22:6
58,23:2
58,24:4
58,25:5
58,26:6
58,27:7
58,28:3
58,29:7
58,30:4
58,31:1
58,32:1
58,33:3
58,34:3
58,35:7
58,36:3
58,37:6
58,38:1
58,39:4
58,40:6
58,41:6
58,42:7
58,43:3
58,44:4
58,45:4
58,46:2
58,47:5
58,48:6
58,49:4
58,50:2
58,51:3
58,52:6
58,53:3
58,54:7
58,55:2
58,56:1
58,57:5
58,58:7

<end>

<optimal SALBP-1 value>
27


<rand seed>
467321153

